387
322
637
404
342
672
568
496
625
513
548
679
406
663
437
706
565
584
453
625
469
442
682
506
367
534
440
313
731
556
590
719
497
319
580
281
255
636
608
502
622
741
387
472
578
709
681
351
251
490
343
629
693
280
265
700
367
580
724
405
648
437
281
355
304
441
483
434
513
741
746
521
622
407
444
620
471
630
330
657
721
361
545
386
271
609
610
429
449
272
398
630
307
453
737
495
462
388
391
656
562
698
301
380
567
329
614
307
672
651
614
689
317
327
328
567
360
673
687
407
599
370
748
374
487
495
627
535
461
494
378
394
477
302
727
321
441
480
656
514
356
346
477
319
635
693
654
289
659
334
264
546
258
327
588
609
464
343
501
466
456
304
378
327
290
503
438
574
602
564
518
599
609
719
405
304
347
512
508
686
738
652
734
542
657
366
584
472
344
741
616
458
596
649
508
441
316
488
639
441